5
25
0 36000
22860 30060
12420 19620
28140 35340
4080 11280
19380 26580
19980 27180
21120 28320
14280 21480
28500 35700
24600 31800
4980 12180
19140 26340
7920 15120
25080 32280
21120 28320
11340 18540
2760 9960
17820 25020
3060 10260
19380 26580
8880 16080
2460 9660
18240 25440
15780 22980
16680 23880